NAME          
ROWS
 N  OBJ
 L  c2
 L  c3
 L  c4
 L  c5
 L  c6
 L  c7
 L  c8
 L  c9
 L  c10
 L  c11
 G  c1
COLUMNS
    ss[1]     c1        1
    ss[1]     OBJ       1000
    s[1]      c2        1
    s[1]      OBJ       -1000
    s[2]      c3        1
    s[2]      OBJ       -1000
    s[3]      c4        1
    s[3]      OBJ       -1000
    s[4]      c5        1
    s[4]      OBJ       -1000
    s[5]      c6        1
    s[5]      OBJ       -1000
    s[6]      c7        1
    s[6]      OBJ       -1000
    s[7]      c8        1
    s[7]      OBJ       -1000
    s[8]      c9        1
    s[8]      OBJ       -1000
    s[9]      c10       1
    s[9]      OBJ       -1000
    s[10]     c11       1
    s[10]     OBJ       -1000
    MARKER    'MARKER'                 'INTORG'
    x[1]      c2        705
    x[1]      c3        277
    x[1]      c4        659
    x[1]      c5        943
    x[1]      c6        208
    x[1]      c7        201
    x[1]      c8        997
    x[1]      c9        85
    x[1]      c10       803
    x[1]      c11       714
    x[1]      c1        556
    x[1]      OBJ       -849
    x[2]      c2        792
    x[2]      c3        223
    x[2]      c4        70
    x[2]      c5        666
    x[2]      c6        310
    x[2]      c7        270
    x[2]      c8        477
    x[2]      c9        254
    x[2]      c10       788
    x[2]      c11       953
    x[2]      c1        736
    x[2]      OBJ       -570
    x[3]      c2        364
    x[3]      c3        619
    x[3]      c4        162
    x[3]      c5        945
    x[3]      c6        233
    x[3]      c7        771
    x[3]      c8        667
    x[3]      c9        611
    x[3]      c10       56
    x[3]      c11       870
    x[3]      c1        301
    x[3]      OBJ       -1087
    x[4]      c2        839
    x[4]      c3        804
    x[4]      c4        341
    x[4]      c5        495
    x[4]      c6        288
    x[4]      c7        351
    x[4]      c8        71
    x[4]      c9        490
    x[4]      c10       518
    x[4]      c11       401
    x[4]      c1        111
    x[4]      OBJ       -1047
    x[5]      c2        560
    x[5]      c3        831
    x[5]      c4        810
    x[5]      c5        89
    x[5]      c6        115
    x[5]      c7        452
    x[5]      c8        935
    x[5]      c9        238
    x[5]      c10       258
    x[5]      c11       508
    x[5]      c1        704
    x[5]      OBJ       -743
    x[6]      c2        550
    x[6]      c3        903
    x[6]      c4        680
    x[6]      c5        713
    x[6]      c6        132
    x[6]      c7        258
    x[6]      c8        445
    x[6]      c9        277
    x[6]      c10       426
    x[6]      c11       613
    x[6]      c1        408
    x[6]      OBJ       -1045
    x[7]      c2        116
    x[7]      c3        805
    x[7]      c4        816
    x[7]      c5        469
    x[7]      c6        20
    x[7]      c7        349
    x[7]      c8        249
    x[7]      c9        619
    x[7]      c10       349
    x[7]      c11       627
    x[7]      c1        163
    x[7]      OBJ       -1209
    x[8]      c2        923
    x[8]      c3        942
    x[8]      c4        859
    x[8]      c5        359
    x[8]      c6        734
    x[8]      c7        457
    x[8]      c8        81
    x[8]      c9        329
    x[8]      c10       790
    x[8]      c11       447
    x[8]      c1        315
    x[8]      OBJ       -1104
    x[9]      c2        494
    x[9]      c3        860
    x[9]      c4        404
    x[9]      c5        587
    x[9]      c6        666
    x[9]      c7        555
    x[9]      c8        206
    x[9]      c9        155
    x[9]      c10       879
    x[9]      c11       710
    x[9]      c1        670
    x[9]      OBJ       -940
    x[10]     c2        467
    x[10]     c3        807
    x[10]     c4        251
    x[10]     c5        656
    x[10]     c6        53
    x[10]     c7        33
    x[10]     c8        546
    x[10]     c9        471
    x[10]     c10       6
    x[10]     c11       470
    x[10]     c1        457
    x[10]     OBJ       -570
    x[11]     c2        762
    x[11]     c3        997
    x[11]     c4        547
    x[11]     c5        521
    x[11]     c6        118
    x[11]     c7        601
    x[11]     c8        755
    x[11]     c9        900
    x[11]     c10       310
    x[11]     c11       338
    x[11]     c1        357
    x[11]     OBJ       -1253
    x[12]     c2        827
    x[12]     c3        706
    x[12]     c4        863
    x[12]     c5        37
    x[12]     c6        475
    x[12]     c7        135
    x[12]     c8        586
    x[12]     c9        391
    x[12]     c10       364
    x[12]     c11       101
    x[12]     c1        916
    x[12]     OBJ       -547
    x[13]     c2        757
    x[13]     c3        49
    x[13]     c4        151
    x[13]     c5        152
    x[13]     c6        234
    x[13]     c7        341
    x[13]     c8        485
    x[13]     c9        93
    x[13]     c10       682
    x[13]     c11       233
    x[13]     c1        614
    x[13]     OBJ       -741
    x[14]     c2        526
    x[14]     c3        461
    x[14]     c4        124
    x[14]     c5        254
    x[14]     c6        514
    x[14]     c7        419
    x[14]     c8        535
    x[14]     c9        849
    x[14]     c10       670
    x[14]     c11       416
    x[14]     c1        60
    x[14]     OBJ       -1122
    x[15]     c2        344
    x[15]     c3        858
    x[15]     c4        762
    x[15]     c5        47
    x[15]     c6        132
    x[15]     c7        881
    x[15]     c8        75
    x[15]     c9        700
    x[15]     c10       58
    x[15]     c11       687
    x[15]     c1        373
    x[15]     OBJ       -1037
    x[16]     c2        859
    x[16]     c3        81
    x[16]     c4        605
    x[16]     c5        212
    x[16]     c6        90
    x[16]     c7        992
    x[16]     c8        853
    x[16]     c9        156
    x[16]     c10       930
    x[16]     c11       613
    x[16]     c1        182
    x[16]     OBJ       -1320
    x[17]     c2        599
    x[17]     c3        104
    x[17]     c4        261
    x[17]     c5        948
    x[17]     c6        881
    x[17]     c7        15
    x[17]     c8        320
    x[17]     c9        532
    x[17]     c10       354
    x[17]     c11       560
    x[17]     c1        129
    x[17]     OBJ       -1017
    x[18]     c2        48
    x[18]     c3        438
    x[18]     c4        189
    x[18]     c5        631
    x[18]     c6        656
    x[18]     c7        153
    x[18]     c8        909
    x[18]     c9        510
    x[18]     c10       734
    x[18]     c11       910
    x[18]     c1        767
    x[18]     OBJ       -406
    x[19]     c2        210
    x[19]     c3        495
    x[19]     c4        478
    x[19]     c5        105
    x[19]     c6        292
    x[19]     c7        691
    x[19]     c8        317
    x[19]     c9        408
    x[19]     c10       226
    x[19]     c11       628
    x[19]     c1        896
    x[19]     OBJ       -281
    x[20]     c2        732
    x[20]     c3        909
    x[20]     c4        501
    x[20]     c5        589
    x[20]     c6        300
    x[20]     c7        183
    x[20]     c8        1000
    x[20]     c9        417
    x[20]     c10       127
    x[20]     c11       902
    x[20]     c1        178
    x[20]     OBJ       -1141
    x[21]     c2        126
    x[21]     c3        114
    x[21]     c4        129
    x[21]     c5        139
    x[21]     c6        738
    x[21]     c7        566
    x[21]     c8        621
    x[21]     c9        187
    x[21]     c10       726
    x[21]     c11       200
    x[21]     c1        975
    x[21]     OBJ       -53
    x[22]     c2        984
    x[22]     c3        354
    x[22]     c4        986
    x[22]     c5        185
    x[22]     c6        807
    x[22]     c7        355
    x[22]     c8        840
    x[22]     c9        283
    x[22]     c10       726
    x[22]     c11       445
    x[22]     c1        226
    x[22]     OBJ       -1336
    x[23]     c2        969
    x[23]     c3        941
    x[23]     c4        744
    x[23]     c5        163
    x[23]     c6        523
    x[23]     c7        562
    x[23]     c8        524
    x[23]     c9        671
    x[23]     c10       920
    x[23]     c11       815
    x[23]     c1        404
    x[23]     OBJ       -1359
    x[24]     c2        782
    x[24]     c3        381
    x[24]     c4        254
    x[24]     c5        932
    x[24]     c6        749
    x[24]     c7        512
    x[24]     c8        875
    x[24]     c9        898
    x[24]     c10       320
    x[24]     c11       971
    x[24]     c1        833
    x[24]     OBJ       -798
    x[25]     c2        743
    x[25]     c3        432
    x[25]     c4        195
    x[25]     c5        334
    x[25]     c6        376
    x[25]     c7        229
    x[25]     c8        551
    x[25]     c9        714
    x[25]     c10       412
    x[25]     c11       808
    x[25]     c1        575
    x[25]     OBJ       -545
    x[26]     c2        340
    x[26]     c3        658
    x[26]     c4        565
    x[26]     c5        367
    x[26]     c6        524
    x[26]     c7        755
    x[26]     c8        449
    x[26]     c9        148
    x[26]     c10       129
    x[26]     c11       694
    x[26]     c1        340
    x[26]     OBJ       -793
    x[27]     c2        379
    x[27]     c3        841
    x[27]     c4        553
    x[27]     c5        147
    x[27]     c6        945
    x[27]     c7        110
    x[27]     c8        333
    x[27]     c9        80
    x[27]     c10       54
    x[27]     c11       571
    x[27]     c1        321
    x[27]     OBJ       -757
    x[28]     c2        404
    x[28]     c3        141
    x[28]     c4        827
    x[28]     c5        976
    x[28]     c6        122
    x[28]     c7        279
    x[28]     c8        823
    x[28]     c9        779
    x[28]     c10       264
    x[28]     c11       266
    x[28]     c1        580
    x[28]     OBJ       -936
    x[29]     c2        434
    x[29]     c3        504
    x[29]     c4        403
    x[29]     c5        133
    x[29]     c6        555
    x[29]     c7        100
    x[29]     c8        897
    x[29]     c9        817
    x[29]     c10       153
    x[29]     c11       588
    x[29]     c1        425
    x[29]     OBJ       -723
    x[30]     c2        46
    x[30]     c3        62
    x[30]     c4        418
    x[30]     c5        150
    x[30]     c6        902
    x[30]     c7        782
    x[30]     c8        930
    x[30]     c9        779
    x[30]     c10       590
    x[30]     c11       94
    x[30]     c1        955
    x[30]     OBJ       -425
    x[31]     c2        380
    x[31]     c3        163
    x[31]     c4        403
    x[31]     c5        628
    x[31]     c6        367
    x[31]     c7        636
    x[31]     c8        709
    x[31]     c9        453
    x[31]     c10       847
    x[31]     c11       687
    x[31]     c1        739
    x[31]     OBJ       -834
    x[32]     c2        131
    x[32]     c3        127
    x[32]     c4        952
    x[32]     c5        633
    x[32]     c6        893
    x[32]     c7        773
    x[32]     c8        134
    x[32]     c9        835
    x[32]     c10       47
    x[32]     c11       648
    x[32]     c1        473
    x[32]     OBJ       -815
    x[33]     c2        59
    x[33]     c3        768
    x[33]     c4        62
    x[33]     c5        24
    x[33]     c6        795
    x[33]     c7        110
    x[33]     c8        453
    x[33]     c9        980
    x[33]     c10       229
    x[33]     c11       952
    x[33]     c1        946
    x[33]     OBJ       -161
    x[34]     c2        339
    x[34]     c3        633
    x[34]     c4        906
    x[34]     c5        715
    x[34]     c6        539
    x[34]     c7        606
    x[34]     c8        739
    x[34]     c9        988
    x[34]     c10       785
    x[34]     c11       836
    x[34]     c1        666
    x[34]     OBJ       -889
    x[35]     c2        810
    x[35]     c3        91
    x[35]     c4        650
    x[35]     c5        989
    x[35]     c6        652
    x[35]     c7        437
    x[35]     c8        155
    x[35]     c9        437
    x[35]     c10       926
    x[35]     c11       689
    x[35]     c1        630
    x[35]     OBJ       -990
    x[36]     c2        952
    x[36]     c3        819
    x[36]     c4        658
    x[36]     c5        878
    x[36]     c6        828
    x[36]     c7        66
    x[36]     c8        110
    x[36]     c9        443
    x[36]     c10       404
    x[36]     c11       604
    x[36]     c1        462
    x[36]     OBJ       -820
    x[37]     c2        710
    x[37]     c3        155
    x[37]     c4        516
    x[37]     c5        900
    x[37]     c6        871
    x[37]     c7        433
    x[37]     c8        258
    x[37]     c9        291
    x[37]     c10       899
    x[37]     c11       71
    x[37]     c1        841
    x[37]     OBJ       -617
    x[38]     c2        698
    x[38]     c3        865
    x[38]     c4        409
    x[38]     c5        73
    x[38]     c6        729
    x[38]     c7        521
    x[38]     c8        655
    x[38]     c9        465
    x[38]     c10       856
    x[38]     c11       23
    x[38]     c1        2
    x[38]     OBJ       -1328
    x[39]     c2        580
    x[39]     c3        164
    x[39]     c4        170
    x[39]     c5        334
    x[39]     c6        162
    x[39]     c7        416
    x[39]     c8        981
    x[39]     c9        322
    x[39]     c10       720
    x[39]     c11       984
    x[39]     c1        778
    x[39]     OBJ       -747
    x[40]     c2        84
    x[40]     c3        255
    x[40]     c4        218
    x[40]     c5        349
    x[40]     c6        382
    x[40]     c7        257
    x[40]     c8        125
    x[40]     c9        53
    x[40]     c10       890
    x[40]     c11       322
    x[40]     c1        714
    x[40]     OBJ       -324
    x[41]     c2        780
    x[41]     c3        830
    x[41]     c4        54
    x[41]     c5        925
    x[41]     c6        172
    x[41]     c7        947
    x[41]     c8        79
    x[41]     c9        87
    x[41]     c10       804
    x[41]     c11       826
    x[41]     c1        855
    x[41]     OBJ       -419
    x[42]     c2        497
    x[42]     c3        519
    x[42]     c4        974
    x[42]     c5        171
    x[42]     c6        804
    x[42]     c7        70
    x[42]     c8        245
    x[42]     c9        838
    x[42]     c10       373
    x[42]     c11       854
    x[42]     c1        768
    x[42]     OBJ       -453
    x[43]     c2        272
    x[43]     c3        133
    x[43]     c4        744
    x[43]     c5        275
    x[43]     c6        444
    x[43]     c7        383
    x[43]     c8        731
    x[43]     c9        551
    x[43]     c10       530
    x[43]     c11       395
    x[43]     c1        141
    x[43]     OBJ       -965
    x[44]     c2        688
    x[44]     c3        24
    x[44]     c4        368
    x[44]     c5        714
    x[44]     c6        419
    x[44]     c7        590
    x[44]     c8        356
    x[44]     c9        508
    x[44]     c10       211
    x[44]     c11       324
    x[44]     c1        847
    x[44]     OBJ       -463
    x[45]     c2        223
    x[45]     c3        898
    x[45]     c4        936
    x[45]     c5        159
    x[45]     c6        463
    x[45]     c7        505
    x[45]     c8        723
    x[45]     c9        84
    x[45]     c10       918
    x[45]     c11       255
    x[45]     c1        325
    x[45]     OBJ       -1029
    x[46]     c2        830
    x[46]     c3        931
    x[46]     c4        821
    x[46]     c5        438
    x[46]     c6        571
    x[46]     c7        941
    x[46]     c8        71
    x[46]     c9        892
    x[46]     c10       606
    x[46]     c11       253
    x[46]     c1        765
    x[46]     OBJ       -673
    x[47]     c2        367
    x[47]     c3        364
    x[47]     c4        200
    x[47]     c5        23
    x[47]     c6        276
    x[47]     c7        586
    x[47]     c8        134
    x[47]     c9        343
    x[47]     c10       121
    x[47]     c11       573
    x[47]     c1        10
    x[47]     OBJ       -1297
    x[48]     c2        1000
    x[48]     c3        660
    x[48]     c4        823
    x[48]     c5        412
    x[48]     c6        461
    x[48]     c7        352
    x[48]     c8        219
    x[48]     c9        152
    x[48]     c10       448
    x[48]     c11       8
    x[48]     c1        162
    x[48]     OBJ       -1183
    x[49]     c2        447
    x[49]     c3        23
    x[49]     c4        490
    x[49]     c5        141
    x[49]     c6        249
    x[49]     c7        399
    x[49]     c8        824
    x[49]     c9        553
    x[49]     c10       327
    x[49]     c11       863
    x[49]     c1        208
    x[49]     OBJ       -1045
    x[50]     c2        336
    x[50]     c3        885
    x[50]     c4        669
    x[50]     c5        740
    x[50]     c6        464
    x[50]     c7        92
    x[50]     c8        269
    x[50]     c9        614
    x[50]     c10       717
    x[50]     c11       482
    x[50]     c1        981
    x[50]     OBJ       -648
    x[51]     c2        785
    x[51]     c3        322
    x[51]     c4        586
    x[51]     c5        322
    x[51]     c6        966
    x[51]     c7        918
    x[51]     c8        727
    x[51]     c9        629
    x[51]     c10       590
    x[51]     c11       6
    x[51]     c1        638
    x[51]     OBJ       -687
    x[52]     c2        745
    x[52]     c3        60
    x[52]     c4        869
    x[52]     c5        186
    x[52]     c6        986
    x[52]     c7        446
    x[52]     c8        584
    x[52]     c9        414
    x[52]     c10       852
    x[52]     c11       316
    x[52]     c1        184
    x[52]     OBJ       -1112
    x[53]     c2        227
    x[53]     c3        261
    x[53]     c4        774
    x[53]     c5        598
    x[53]     c6        5
    x[53]     c7        471
    x[53]     c8        682
    x[53]     c9        112
    x[53]     c10       60
    x[53]     c11       941
    x[53]     c1        124
    x[53]     OBJ       -1004
    x[54]     c2        820
    x[54]     c3        451
    x[54]     c4        714
    x[54]     c5        968
    x[54]     c6        523
    x[54]     c7        360
    x[54]     c8        263
    x[54]     c9        957
    x[54]     c10       840
    x[54]     c11       523
    x[54]     c1        910
    x[54]     OBJ       -445
    x[55]     c2        823
    x[55]     c3        212
    x[55]     c4        683
    x[55]     c5        598
    x[55]     c6        149
    x[55]     c7        634
    x[55]     c8        759
    x[55]     c9        551
    x[55]     c10       46
    x[55]     c11       56
    x[55]     c1        332
    x[55]     OBJ       -787
    x[56]     c2        370
    x[56]     c3        557
    x[56]     c4        342
    x[56]     c5        481
    x[56]     c6        134
    x[56]     c7        156
    x[56]     c8        719
    x[56]     c9        401
    x[56]     c10       172
    x[56]     c11       106
    x[56]     c1        634
    x[56]     OBJ       -406
    x[57]     c2        711
    x[57]     c3        610
    x[57]     c4        609
    x[57]     c5        507
    x[57]     c6        82
    x[57]     c7        178
    x[57]     c8        403
    x[57]     c9        789
    x[57]     c10       55
    x[57]     c11       359
    x[57]     c1        555
    x[57]     OBJ       -659
    x[58]     c2        598
    x[58]     c3        414
    x[58]     c4        699
    x[58]     c5        5
    x[58]     c6        725
    x[58]     c7        490
    x[58]     c8        349
    x[58]     c9        452
    x[58]     c10       408
    x[58]     c11       86
    x[58]     c1        55
    x[58]     OBJ       -1001
    x[59]     c2        325
    x[59]     c3        550
    x[59]     c4        325
    x[59]     c5        37
    x[59]     c6        593
    x[59]     c7        79
    x[59]     c8        322
    x[59]     c9        874
    x[59]     c10       418
    x[59]     c11       510
    x[59]     c1        396
    x[59]     OBJ       -790
    x[60]     c2        61
    x[60]     c3        329
    x[60]     c4        269
    x[60]     c5        658
    x[60]     c6        27
    x[60]     c7        914
    x[60]     c8        48
    x[60]     c9        195
    x[60]     c10       590
    x[60]     c11       667
    x[60]     c1        23
    x[60]     OBJ       -1235
    x[61]     c2        280
    x[61]     c3        482
    x[61]     c4        170
    x[61]     c5        249
    x[61]     c6        601
    x[61]     c7        64
    x[61]     c8        788
    x[61]     c9        697
    x[61]     c10       20
    x[61]     c11       214
    x[61]     c1        171
    x[61]     OBJ       -812
    x[62]     c2        310
    x[62]     c3        843
    x[62]     c4        730
    x[62]     c5        20
    x[62]     c6        245
    x[62]     c7        365
    x[62]     c8        839
    x[62]     c9        739
    x[62]     c10       410
    x[62]     c11       501
    x[62]     c1        310
    x[62]     OBJ       -942
    x[63]     c2        76
    x[63]     c3        632
    x[63]     c4        821
    x[63]     c5        315
    x[63]     c6        494
    x[63]     c7        110
    x[63]     c8        26
    x[63]     c9        36
    x[63]     c10       899
    x[63]     c11       988
    x[63]     c1        181
    x[63]     OBJ       -1165
    x[64]     c2        906
    x[64]     c3        992
    x[64]     c4        451
    x[64]     c5        261
    x[64]     c6        216
    x[64]     c7        697
    x[64]     c8        892
    x[64]     c9        114
    x[64]     c10       372
    x[64]     c11       757
    x[64]     c1        378
    x[64]     OBJ       -1123
    x[65]     c2        416
    x[65]     c3        642
    x[65]     c4        172
    x[65]     c5        735
    x[65]     c6        30
    x[65]     c7        247
    x[65]     c8        883
    x[65]     c9        732
    x[65]     c10       483
    x[65]     c11       854
    x[65]     c1        600
    x[65]     OBJ       -968
    x[66]     c2        286
    x[66]     c3        906
    x[66]     c4        141
    x[66]     c5        801
    x[66]     c6        949
    x[66]     c7        145
    x[66]     c8        83
    x[66]     c9        955
    x[66]     c10       688
    x[66]     c11       343
    x[66]     c1        742
    x[66]     OBJ       -748
    x[67]     c2        888
    x[67]     c3        6
    x[67]     c4        624
    x[67]     c5        330
    x[67]     c6        771
    x[67]     c7        535
    x[67]     c8        69
    x[67]     c9        867
    x[67]     c10       596
    x[67]     c11       550
    x[67]     c1        275
    x[67]     OBJ       -1225
    x[68]     c2        31
    x[68]     c3        768
    x[68]     c4        739
    x[68]     c5        128
    x[68]     c6        923
    x[68]     c7        53
    x[68]     c8        133
    x[68]     c9        571
    x[68]     c10       63
    x[68]     c11       492
    x[68]     c1        601
    x[68]     OBJ       -558
    x[69]     c2        794
    x[69]     c3        354
    x[69]     c4        51
    x[69]     c5        78
    x[69]     c6        278
    x[69]     c7        700
    x[69]     c8        127
    x[69]     c9        421
    x[69]     c10       963
    x[69]     c11       981
    x[69]     c1        951
    x[69]     OBJ       -512
    x[70]     c2        61
    x[70]     c3        80
    x[70]     c4        679
    x[70]     c5        445
    x[70]     c6        226
    x[70]     c7        874
    x[70]     c8        794
    x[70]     c9        622
    x[70]     c10       485
    x[70]     c11       112
    x[70]     c1        731
    x[70]     OBJ       -481
    x[71]     c2        590
    x[71]     c3        224
    x[71]     c4        717
    x[71]     c5        273
    x[71]     c6        231
    x[71]     c7        860
    x[71]     c8        221
    x[71]     c9        89
    x[71]     c10       789
    x[71]     c11       2
    x[71]     c1        166
    x[71]     OBJ       -1310
    x[72]     c2        297
    x[72]     c3        780
    x[72]     c4        515
    x[72]     c5        582
    x[72]     c6        134
    x[72]     c7        312
    x[72]     c8        280
    x[72]     c9        679
    x[72]     c10       291
    x[72]     c11       938
    x[72]     c1        659
    x[72]     OBJ       -740
    x[73]     c2        836
    x[73]     c3        710
    x[73]     c4        288
    x[73]     c5        219
    x[73]     c6        309
    x[73]     c7        220
    x[73]     c8        76
    x[73]     c9        617
    x[73]     c10       331
    x[73]     c11       659
    x[73]     c1        15
    x[73]     OBJ       -1367
    x[74]     c2        765
    x[74]     c3        253
    x[74]     c4        829
    x[74]     c5        794
    x[74]     c6        782
    x[74]     c7        13
    x[74]     c8        105
    x[74]     c9        189
    x[74]     c10       706
    x[74]     c11       916
    x[74]     c1        230
    x[74]     OBJ       -1117
    x[75]     c2        236
    x[75]     c3        46
    x[75]     c4        1
    x[75]     c5        140
    x[75]     c6        100
    x[75]     c7        266
    x[75]     c8        803
    x[75]     c9        476
    x[75]     c10       99
    x[75]     c11       77
    x[75]     c1        577
    x[75]     OBJ       -282
    x[76]     c2        145
    x[76]     c3        136
    x[76]     c4        971
    x[76]     c5        648
    x[76]     c6        522
    x[76]     c7        412
    x[76]     c8        628
    x[76]     c9        559
    x[76]     c10       295
    x[76]     c11       366
    x[76]     c1        807
    x[76]     OBJ       -706
    x[77]     c2        791
    x[77]     c3        43
    x[77]     c4        92
    x[77]     c5        406
    x[77]     c6        788
    x[77]     c7        802
    x[77]     c8        79
    x[77]     c9        196
    x[77]     c10       807
    x[77]     c11       861
    x[77]     c1        420
    x[77]     OBJ       -938
    x[78]     c2        612
    x[78]     c3        13
    x[78]     c4        41
    x[78]     c5        808
    x[78]     c6        717
    x[78]     c7        639
    x[78]     c8        815
    x[78]     c9        14
    x[78]     c10       363
    x[78]     c11       390
    x[78]     c1        862
    x[78]     OBJ       -567
    x[79]     c2        438
    x[79]     c3        218
    x[79]     c4        621
    x[79]     c5        890
    x[79]     c6        568
    x[79]     c7        259
    x[79]     c8        732
    x[79]     c9        95
    x[79]     c10       633
    x[79]     c11       535
    x[79]     c1        974
    x[79]     OBJ       -442
    x[80]     c2        575
    x[80]     c3        129
    x[80]     c4        234
    x[80]     c5        380
    x[80]     c6        934
    x[80]     c7        910
    x[80]     c8        471
    x[80]     c9        816
    x[80]     c10       385
    x[80]     c11       229
    x[80]     c1        991
    x[80]     OBJ       -581
    x[81]     c2        568
    x[81]     c3        378
    x[81]     c4        62
    x[81]     c5        527
    x[81]     c6        789
    x[81]     c7        607
    x[81]     c8        697
    x[81]     c9        42
    x[81]     c10       220
    x[81]     c11       745
    x[81]     c1        795
    x[81]     OBJ       -677
    x[82]     c2        844
    x[82]     c3        247
    x[82]     c4        193
    x[82]     c5        330
    x[82]     c6        593
    x[82]     c7        741
    x[82]     c8        948
    x[82]     c9        891
    x[82]     c10       376
    x[82]     c11       26
    x[82]     c1        938
    x[82]     OBJ       -246
    x[83]     c2        531
    x[83]     c3        458
    x[83]     c4        215
    x[83]     c5        425
    x[83]     c6        551
    x[83]     c7        939
    x[83]     c8        847
    x[83]     c9        811
    x[83]     c10       556
    x[83]     c11       598
    x[83]     c1        792
    x[83]     OBJ       -668
    x[84]     c2        840
    x[84]     c3        356
    x[84]     c4        245
    x[84]     c5        479
    x[84]     c6        270
    x[84]     c7        795
    x[84]     c8        668
    x[84]     c9        287
    x[84]     c10       475
    x[84]     c11       211
    x[84]     c1        647
    x[84]     OBJ       -744
    x[85]     c2        708
    x[85]     c3        118
    x[85]     c4        821
    x[85]     c5        998
    x[85]     c6        375
    x[85]     c7        794
    x[85]     c8        676
    x[85]     c9        789
    x[85]     c10       660
    x[85]     c11       537
    x[85]     c1        59
    x[85]     OBJ       -1488
    x[86]     c2        939
    x[86]     c3        271
    x[86]     c4        60
    x[86]     c5        272
    x[86]     c6        662
    x[86]     c7        51
    x[86]     c8        724
    x[86]     c9        347
    x[86]     c10       749
    x[86]     c11       84
    x[86]     c1        991
    x[86]     OBJ       -340
    x[87]     c2        772
    x[87]     c3        404
    x[87]     c4        700
    x[87]     c5        193
    x[87]     c6        211
    x[87]     c7        785
    x[87]     c8        387
    x[87]     c9        403
    x[87]     c10       186
    x[87]     c11       58
    x[87]     c1        759
    x[87]     OBJ       -637
    x[88]     c2        375
    x[88]     c3        685
    x[88]     c4        198
    x[88]     c5        427
    x[88]     c6        892
    x[88]     c7        764
    x[88]     c8        911
    x[88]     c9        43
    x[88]     c10       272
    x[88]     c11       344
    x[88]     c1        627
    x[88]     OBJ       -714
    x[89]     c2        254
    x[89]     c3        509
    x[89]     c4        532
    x[89]     c5        247
    x[89]     c6        983
    x[89]     c7        637
    x[89]     c8        103
    x[89]     c9        932
    x[89]     c10       8
    x[89]     c11       456
    x[89]     c1        328
    x[89]     OBJ       -1057
    x[90]     c2        83
    x[90]     c3        899
    x[90]     c4        914
    x[90]     c5        754
    x[90]     c6        37
    x[90]     c7        334
    x[90]     c8        62
    x[90]     c9        815
    x[90]     c10       745
    x[90]     c11       239
    x[90]     c1        902
    x[90]     OBJ       -284
    x[91]     c2        200
    x[91]     c3        217
    x[91]     c4        344
    x[91]     c5        227
    x[91]     c6        295
    x[91]     c7        865
    x[91]     c8        187
    x[91]     c9        706
    x[91]     c10       720
    x[91]     c11       405
    x[91]     c1        629
    x[91]     OBJ       -639
    x[92]     c2        477
    x[92]     c3        676
    x[92]     c4        310
    x[92]     c5        249
    x[92]     c6        295
    x[92]     c7        457
    x[92]     c8        820
    x[92]     c9        181
    x[92]     c10       245
    x[92]     c11       683
    x[92]     c1        510
    x[92]     OBJ       -729
    x[93]     c2        120
    x[93]     c3        496
    x[93]     c4        312
    x[93]     c5        135
    x[93]     c6        148
    x[93]     c7        235
    x[93]     c8        193
    x[93]     c9        376
    x[93]     c10       145
    x[93]     c11       989
    x[93]     c1        103
    x[93]     OBJ       -1145
    x[94]     c2        391
    x[94]     c3        160
    x[94]     c4        817
    x[94]     c5        553
    x[94]     c6        513
    x[94]     c7        985
    x[94]     c8        584
    x[94]     c9        229
    x[94]     c10       535
    x[94]     c11       853
    x[94]     c1        788
    x[94]     OBJ       -663
    x[95]     c2        64
    x[95]     c3        508
    x[95]     c4        91
    x[95]     c5        335
    x[95]     c6        14
    x[95]     c7        436
    x[95]     c8        326
    x[95]     c9        36
    x[95]     c10       29
    x[95]     c11       921
    x[95]     c1        73
    x[95]     OBJ       -993
    x[96]     c2        784
    x[96]     c3        822
    x[96]     c4        179
    x[96]     c5        822
    x[96]     c6        486
    x[96]     c7        975
    x[96]     c8        555
    x[96]     c9        113
    x[96]     c10       519
    x[96]     c11       544
    x[96]     c1        379
    x[96]     OBJ       -1127
    x[97]     c2        138
    x[97]     c3        346
    x[97]     c4        355
    x[97]     c5        818
    x[97]     c6        97
    x[97]     c7        458
    x[97]     c8        95
    x[97]     c9        870
    x[97]     c10       805
    x[97]     c11       363
    x[97]     c1        573
    x[97]     OBJ       -714
    x[98]     c2        50
    x[98]     c3        362
    x[98]     c4        414
    x[98]     c5        837
    x[98]     c6        979
    x[98]     c7        504
    x[98]     c8        254
    x[98]     c9        748
    x[98]     c10       654
    x[98]     c11       386
    x[98]     c1        783
    x[98]     OBJ       -706
    x[99]     c2        838
    x[99]     c3        11
    x[99]     c4        51
    x[99]     c5        864
    x[99]     c6        22
    x[99]     c7        782
    x[99]     c8        488
    x[99]     c9        951
    x[99]     c10       298
    x[99]     c11       943
    x[99]     c1        310
    x[99]     OBJ       -1091
    x[100]    c2        380
    x[100]    c3        353
    x[100]    c4        488
    x[100]    c5        149
    x[100]    c6        347
    x[100]    c7        833
    x[100]    c8        668
    x[100]    c9        977
    x[100]    c10       584
    x[100]    c11       937
    x[100]    c1        38
    x[100]    OBJ       -1448
RHS
    rhs       c2        38264
    rhs       c3        34652
    rhs       c4        35766
    rhs       c5        33726
    rhs       c6        34350
    rhs       c7        35688
    rhs       c8        36911
    rhs       c9        36851
    rhs       c10       35828
    rhs       c11       39344
    rhs       c1        38517
RANGES
BOUNDS
 LO bounds    ss[1]     0
 PL bounds    ss[1]
 MI bounds    s[1]
 UP bounds    s[1]      0
 MI bounds    s[2]
 UP bounds    s[2]      0
 MI bounds    s[3]
 UP bounds    s[3]      0
 MI bounds    s[4]
 UP bounds    s[4]      0
 MI bounds    s[5]
 UP bounds    s[5]      0
 MI bounds    s[6]
 UP bounds    s[6]      0
 MI bounds    s[7]
 UP bounds    s[7]      0
 MI bounds    s[8]
 UP bounds    s[8]      0
 MI bounds    s[9]
 UP bounds    s[9]      0
 MI bounds    s[10]
 UP bounds    s[10]     0
 BV bounds    x[1]
 BV bounds    x[2]
 BV bounds    x[3]
 BV bounds    x[4]
 BV bounds    x[5]
 BV bounds    x[6]
 BV bounds    x[7]
 BV bounds    x[8]
 BV bounds    x[9]
 BV bounds    x[10]
 BV bounds    x[11]
 BV bounds    x[12]
 BV bounds    x[13]
 BV bounds    x[14]
 BV bounds    x[15]
 BV bounds    x[16]
 BV bounds    x[17]
 BV bounds    x[18]
 BV bounds    x[19]
 BV bounds    x[20]
 BV bounds    x[21]
 BV bounds    x[22]
 BV bounds    x[23]
 BV bounds    x[24]
 BV bounds    x[25]
 BV bounds    x[26]
 BV bounds    x[27]
 BV bounds    x[28]
 BV bounds    x[29]
 BV bounds    x[30]
 BV bounds    x[31]
 BV bounds    x[32]
 BV bounds    x[33]
 BV bounds    x[34]
 BV bounds    x[35]
 BV bounds    x[36]
 BV bounds    x[37]
 BV bounds    x[38]
 BV bounds    x[39]
 BV bounds    x[40]
 BV bounds    x[41]
 BV bounds    x[42]
 BV bounds    x[43]
 BV bounds    x[44]
 BV bounds    x[45]
 BV bounds    x[46]
 BV bounds    x[47]
 BV bounds    x[48]
 BV bounds    x[49]
 BV bounds    x[50]
 BV bounds    x[51]
 BV bounds    x[52]
 BV bounds    x[53]
 BV bounds    x[54]
 BV bounds    x[55]
 BV bounds    x[56]
 BV bounds    x[57]
 BV bounds    x[58]
 BV bounds    x[59]
 BV bounds    x[60]
 BV bounds    x[61]
 BV bounds    x[62]
 BV bounds    x[63]
 BV bounds    x[64]
 BV bounds    x[65]
 BV bounds    x[66]
 BV bounds    x[67]
 BV bounds    x[68]
 BV bounds    x[69]
 BV bounds    x[70]
 BV bounds    x[71]
 BV bounds    x[72]
 BV bounds    x[73]
 BV bounds    x[74]
 BV bounds    x[75]
 BV bounds    x[76]
 BV bounds    x[77]
 BV bounds    x[78]
 BV bounds    x[79]
 BV bounds    x[80]
 BV bounds    x[81]
 BV bounds    x[82]
 BV bounds    x[83]
 BV bounds    x[84]
 BV bounds    x[85]
 BV bounds    x[86]
 BV bounds    x[87]
 BV bounds    x[88]
 BV bounds    x[89]
 BV bounds    x[90]
 BV bounds    x[91]
 BV bounds    x[92]
 BV bounds    x[93]
 BV bounds    x[94]
 BV bounds    x[95]
 BV bounds    x[96]
 BV bounds    x[97]
 BV bounds    x[98]
 BV bounds    x[99]
 BV bounds    x[100]
ENDATA
